benchmarks_CP/INST_36x36/25/inst36x36_25_55.dzn
S=6;
start=[|
-1,	-1,	12,	-1,	-1,	-1,	-1,	-1,	-1,	35,	-1,	-1,	-1,	-1,	-1,	21,	-1,	4,	-1,	-1,	-1,	-1,	-1,	-1,	34,	-1,	-1,	-1,	-1,	-1,	-1,	-1,	-1,	-1,	-1,	31|
-1,	-1,	-1,	-1,	-1,	-1,	-1,	-1,	11,	-1,	-1,	-1,	-1,	15,	-1,	-1,	-1,	-1,	-1,	19,	-1,	-1,	-1,	-1,	-1,	-1,	24,	31,	-1,	-1,	-1,	-1,	-1,	-1,	-1,	-1|
-1,	-1,	-1,	-1,	-1,	-1,	-1,	-1,	-1,	-1,	-1,	14,	33,	-1,	35,	-1,	13,	-1,	-1,	-1,	-1,	15,	28,	1,	10,	-1,	-1,	-1,	-1,	-1,	27,	-1,	-1,	11,	5,	-1|
2,	-1,	-1,	27,	-1,	-1,	-1,	-1,	25,	-1,	-1,	-1,	-1,	-1,	-1,	-1,	9,	-1,	-1,	26,	31,	-1,	-1,	32,	-1,	-1,	28,	-1,	-1,	-1,	-1,	20,	-1,	-1,	6,	4|
-1,	-1,	-1,	-1,	-1,	16,	-1,	28,	26,	15,	-1,	-1,	18,	-1,	10,	-1,	-1,	36,	13,	-1,	11,	-1,	-1,	-1,	-1,	-1,	-1,	-1,	30,	32,	9,	-1,	-1,	21,	-1,	-1|
-1,	-1,	11,	-1,	-1,	-1,	-1,	-1,	-1,	-1,	-1,	-1,	28,	12,	-1,	-1,	26,	-1,	-1,	-1,	5,	-1,	30,	-1,	-1,	-1,	-1,	-1,	-1,	-1,	-1,	1,	-1,	2,	-1,	29|
-1,	-1,	28,	-1,	-1,	-1,	18,	7,	2,	-1,	-1,	3,	-1,	-1,	-1,	20,	-1,	21,	-1,	30,	-1,	-1,	-1,	-1,	-1,	-1,	-1,	-1,	-1,	-1,	-1,	-1,	32,	-1,	-1,	-1|
-1,	-1,	-1,	-1,	10,	-1,	-1,	-1,	-1,	-1,	-1,	-1,	-1,	-1,	19,	16,	3,	-1,	4,	-1,	2,	-1,	-1,	-1,	-1,	-1,	-1,	-1,	-1,	-1,	-1,	-1,	-1,	-1,	29,	12|
12,	-1,	-1,	-1,	-1,	-1,	36,	35,	-1,	19,	-1,	-1,	-1,	-1,	-1,	-1,	-1,	-1,	26,	-1,	-1,	29,	20,	-1,	3,	-1,	-1,	-1,	-1,	-1,	4,	-1,	-1,	7,	27,	-1|
29,	-1,	-1,	25,	2,	3,	30,	-1,	12,	-1,	-1,	-1,	-1,	-1,	-1,	26,	-1,	-1,	-1,	-1,	-1,	-1,	-1,	18,	-1,	-1,	36,	-1,	7,	6,	-1,	-1,	-1,	-1,	-1,	-1|
-1,	-1,	-1,	-1,	34,	-1,	16,	-1,	20,	-1,	-1,	-1,	23,	-1,	-1,	-1,	7,	-1,	-1,	-1,	9,	-1,	-1,	-1,	28,	19,	2,	-1,	-1,	11,	-1,	-1,	-1,	-1,	-1,	36|
-1,	-1,	7,	-1,	-1,	18,	-1,	31,	-1,	-1,	-1,	-1,	13,	30,	-1,	-1,	-1,	-1,	-1,	25,	-1,	-1,	-1,	-1,	29,	-1,	-1,	-1,	-1,	-1,	-1,	-1,	-1,	-1,	-1,	-1|
-1,	36,	-1,	-1,	-1,	17,	-1,	-1,	29,	-1,	-1,	-1,	26,	21,	-1,	-1,	-1,	-1,	-1,	-1,	-1,	-1,	-1,	-1,	25,	-1,	31,	-1,	-1,	10,	-1,	4,	-1,	-1,	11,	15|
-1,	-1,	-1,	-1,	-1,	-1,	23,	-1,	22,	34,	-1,	-1,	-1,	18,	25,	-1,	-1,	-1,	-1,	-1,	-1,	-1,	-1,	-1,	-1,	-1,	-1,	-1,	19,	16,	3,	-1,	-1,	-1,	-1,	-1|
32,	-1,	-1,	-1,	-1,	-1,	-1,	-1,	-1,	-1,	-1,	10,	-1,	-1,	28,	-1,	-1,	-1,	-1,	-1,	-1,	5,	33,	25,	-1,	-1,	-1,	-1,	-1,	-1,	26,	-1,	-1,	-1,	-1,	-1|
-1,	-1,	-1,	-1,	-1,	-1,	-1,	-1,	31,	-1,	21,	-1,	-1,	-1,	-1,	27,	-1,	-1,	-1,	-1,	-1,	-1,	-1,	-1,	-1,	-1,	-1,	-1,	-1,	-1,	2,	33,	-1,	-1,	-1,	-1|
-1,	-1,	15,	-1,	-1,	-1,	-1,	-1,	36,	-1,	-1,	-1,	-1,	-1,	-1,	-1,	29,	22,	-1,	-1,	-1,	12,	8,	-1,	-1,	33,	-1,	-1,	-1,	-1,	-1,	-1,	-1,	23,	-1,	-1|
-1,	-1,	-1,	-1,	-1,	-1,	24,	-1,	17,	14,	2,	19,	-1,	7,	-1,	-1,	-1,	-1,	-1,	-1,	-1,	32,	-1,	-1,	-1,	-1,	-1,	-1,	-1,	3,	-1,	21,	-1,	-1,	-1,	-1|
-1,	31,	25,	-1,	-1,	-1,	19,	-1,	18,	-1,	-1,	-1,	4,	-1,	-1,	-1,	12,	-1,	8,	-1,	-1,	-1,	-1,	-1,	-1,	10,	-1,	-1,	-1,	-1,	21,	-1,	-1,	-1,	-1,	-1|
-1,	-1,	-1,	2,	15,	-1,	-1,	-1,	8,	-1,	10,	31,	19,	-1,	-1,	-1,	-1,	14,	-1,	-1,	-1,	-1,	-1,	-1,	-1,	-1,	-1,	-1,	16,	33,	35,	-1,	-1,	-1,	-1,	5|
-1,	-1,	-1,	9,	21,	-1,	-1,	-1,	-1,	-1,	20,	28,	-1,	-1,	29,	8,	10,	-1,	-1,	-1,	-1,	-1,	-1,	-1,	36,	4,	-1,	34,	-1,	-1,	-1,	-1,	-1,	-1,	32,	-1|
34,	-1,	13,	-1,	-1,	-1,	3,	-1,	-1,	-1,	7,	-1,	-1,	-1,	-1,	36,	28,	9,	-1,	31,	25,	-1,	35,	-1,	-1,	-1,	-1,	-1,	21,	-1,	-1,	10,	6,	20,	-1,	-1|
-1,	-1,	36,	22,	-1,	-1,	-1,	-1,	-1,	23,	-1,	-1,	-1,	-1,	-1,	-1,	-1,	-1,	-1,	-1,	10,	-1,	-1,	16,	-1,	-1,	-1,	-1,	-1,	-1,	29,	-1,	12,	15,	-1,	-1|
-1,	-1,	-1,	-1,	-1,	-1,	-1,	-1,	4,	-1,	35,	-1,	-1,	32,	-1,	-1,	-1,	-1,	-1,	-1,	17,	-1,	2,	-1,	20,	-1,	-1,	15,	8,	-1,	28,	-1,	34,	-1,	-1,	-1|
-1,	-1,	-1,	-1,	-1,	-1,	-1,	-1,	-1,	-1,	-1,	35,	-1,	-1,	-1,	-1,	11,	-1,	-1,	-1,	-1,	-1,	-1,	-1,	-1,	-1,	-1,	6,	-1,	-1,	-1,	19,	-1,	-1,	7,	17|
-1,	-1,	-1,	-1,	-1,	-1,	-1,	-1,	-1,	7,	-1,	-1,	-1,	9,	-1,	-1,	-1,	-1,	-1,	10,	18,	-1,	-1,	-1,	-1,	-1,	20,	-1,	-1,	27,	-1,	31,	-1,	-1,	21,	6|
-1,	-1,	10,	-1,	-1,	-1,	34,	-1,	-1,	-1,	-1,	-1,	-1,	-1,	-1,	-1,	-1,	-1,	-1,	32,	-1,	-1,	27,	-1,	-1,	14,	-1,	-1,	-1,	30,	-1,	-1,	-1,	-1,	-1,	-1|
-1,	-1,	-1,	-1,	-1,	-1,	-1,	-1,	-1,	-1,	-1,	-1,	-1,	-1,	27,	-1,	-1,	-1,	23,	-1,	22,	-1,	-1,	-1,	-1,	-1,	34,	7,	-1,	-1,	-1,	-1,	-1,	-1,	3,	-1|
-1,	-1,	-1,	-1,	-1,	-1,	-1,	-1,	-1,	27,	-1,	11,	-1,	-1,	22,	33,	-1,	26,	-1,	-1,	-1,	-1,	12,	13,	-1,	-1,	-1,	-1,	1,	29,	-1,	-1,	-1,	28,	16,	-1|
-1,	-1,	29,	-1,	-1,	-1,	-1,	-1,	10,	17,	16,	-1,	25,	-1,	-1,	4,	30,	-1,	-1,	-1,	7,	31,	-1,	-1,	-1,	3,	-1,	23,	-1,	8,	32,	-1,	-1,	-1,	-1,	-1|
13,	28,	-1,	-1,	-1,	-1,	-1,	-1,	-1,	-1,	26,	7,	-1,	33,	-1,	-1,	32,	-1,	-1,	-1,	-1,	-1,	-1,	-1,	-1,	16,	-1,	-1,	-1,	-1,	-1,	-1,	-1,	4,	8,	30|
-1,	2,	-1,	35,	-1,	-1,	12,	23,	19,	9,	-1,	-1,	31,	-1,	16,	10,	-1,	-1,	-1,	-1,	-1,	-1,	-1,	28,	-1,	21,	-1,	-1,	-1,	-1,	-1,	-1,	-1,	-1,	17,	-1|
-1,	-1,	-1,	-1,	-1,	-1,	-1,	-1,	-1,	28,	-1,	34,	-1,	-1,	-1,	6,	-1,	-1,	-1,	-1,	-1,	13,	-1,	-1,	-1,	-1,	9,	-1,	-1,	-1,	12,	-1,	-1,	16,	1,	-1|
-1,	-1,	-1,	36,	-1,	-1,	-1,	-1,	27,	-1,	-1,	-1,	-1,	-1,	-1,	-1,	-1,	-1,	11,	8,	-1,	-1,	16,	-1,	-1,	13,	-1,	-1,	-1,	-1,	-1,	-1,	-1,	-1,	-1,	-1|
-1,	34,	-1,	-1,	-1,	-1,	-1,	-1,	-1,	-1,	-1,	-1,	-1,	27,	36,	-1,	-1,	-1,	-1,	-1,	-1,	-1,	-1,	-1,	-1,	-1,	19,	-1,	-1,	-1,	-1,	-1,	-1,	-1,	-1,	-1|
26,	-1,	30,	-1,	-1,	-1,	-1,	-1,	-1,	-1,	-1,	13,	14,	23,	-1,	-1,	4,	-1,	35,	-1,	-1,	34,	-1,	-1,	-1,	-1,	32,	-1,	-1,	-1,	-1,	-1,	-1,	-1,	-1,	2|];
